NAME lp_typeD_765
OBJSENSE MAX
ROWS
 N  OBJ
 L  c0      
 G  c1      
 G  c2      
 L  c_key_upper
 G  c_key_lower
 G  _chain_constr_1
 G  _chain_constr_2
 G  _chain_constr_3
 G  _chain_constr_4
 G  _chain_constr_5
 G  _chain_cycle
COLUMNS
    x0        OBJ       9.6905373111561321e-01
    x0        c0        1.3111386724137695e+00
    x0        c1        9.8513203269832472e-01
    x0        c2        1.0411119476916075e+00
    x0        c_key_upper  1.8698198835746420e+00
    x0        c_key_lower  1.8698198835746420e+00
    x1        OBJ       6.7003021066216029e-01
    x1        c0        1.8887139290371664e+00
    x1        c1        1.7985972740356932e+00
    x1        c2        1.8963595171053187e+00
    x1        c_key_upper  1.0547702096910543e+00
    x1        c_key_lower  1.0547702096910543e+00
    x2        OBJ       8.1267666035803610e-01
    x2        c0        5.2669132269703511e-01
    x2        c1        1.5499006007132305e+00
    x2        c2        1.1451735527981608e+00
    x2        c_key_upper  1.09017490969807
    x2        c_key_lower  1.09017490969807
    x3        OBJ       7.8869096445686537e-01
    x3        c0        7.6249086154852574e-01
    x3        c1        7.7923051512617847e-01
    x3        c2        1.4535775711066079e+00
    x3        c_key_upper  1.7887543768635739e+00
    x3        c_key_lower  1.7887543768635739e+00
    x4        OBJ       1.4205354713387037e+00
    x4        c0        8.3743726926148243e-01
    x4        c1        1.4016789426081002e+00
    x4        c2        1.0993864361067387e+00
    x4        c_key_upper  1.3958075512233337e+00
    x4        c_key_lower  1.3958075512233337e+00
    x5        OBJ       1.2234746762233386e+00
    x5        c0        1.5831684840979494e+00
    x5        c1        1.2020844644776745e+00
    x5        c2        1.9757474758682387e+00
    x5        c_key_upper  1.4808245724530695e+00
    x5        c_key_lower  1.4808245724530695e+00
    _chain_var_0  _chain_constr_1  -1
    _chain_var_0  _chain_cycle  1
    _chain_var_1  _chain_constr_1  1
    _chain_var_1  _chain_constr_2  -1
    _chain_var_2  _chain_constr_2  1
    _chain_var_2  _chain_constr_3  -1
    _chain_var_3  _chain_constr_3  1
    _chain_var_3  _chain_constr_4  -1
    _chain_var_4  _chain_constr_4  1
    _chain_var_4  _chain_constr_5  -1
    _chain_var_5  _chain_constr_5  1
    _chain_var_5  _chain_cycle  -1
RHS
    RHS1      c0        3.3795460314736573e+01
    RHS1      c1        8.09433599531275
    RHS1      c2        1.3844009779080729e+01
    RHS1      c_key_upper  4.3400757517518720e+01
    RHS1      c_key_lower  2.1700378758759360e+01
    RHS1      _chain_constr_1  10
    RHS1      _chain_constr_2  10
    RHS1      _chain_constr_3  10
    RHS1      _chain_constr_4  10
    RHS1      _chain_constr_5  10
    RHS1      _chain_cycle  10
BOUNDS
 UP BND1      x0        10
 UP BND1      x1        10
 UP BND1      x2        10
 UP BND1      x3        10
 UP BND1      x4        10
 UP BND1      x5        10
 UP BND1      _chain_var_0  100
 UP BND1      _chain_var_1  100
 UP BND1      _chain_var_2  100
 UP BND1      _chain_var_3  100
 UP BND1      _chain_var_4  100
 UP BND1      _chain_var_5  100
ENDATA
